c "162596.clq"
p edge 80 304
e 1 5
e 1 6
e 1 8
e 1 10
e 1 13
e 1 16
e 1 18
e 1 19
e 1 21
e 1 25
e 1 30
e 1 31
e 1 34
e 1 40
e 1 42
e 1 43
e 1 45
e 1 48
e 1 59
e 1 66
e 1 68
e 1 73
e 1 80
e 2 5
e 2 19
e 2 34
e 3 5
e 3 6
e 3 7
e 3 8
e 3 9
e 3 13
e 3 33
e 3 38
e 3 40
e 3 49
e 4 5
e 4 6
e 4 7
e 4 8
e 4 9
e 4 10
e 4 11
e 4 12
e 4 17
e 4 24
e 4 28
e 4 32
e 4 39
e 4 50
e 4 69
e 5 6
e 5 7
e 5 9
e 5 10
e 5 11
e 5 12
e 5 13
e 5 14
e 5 16
e 5 17
e 5 18
e 5 20
e 5 21
e 5 22
e 5 27
e 5 28
e 5 31
e 5 35
e 5 37
e 5 40
e 5 44
e 5 50
e 5 54
e 5 56
e 5 61
e 5 63
e 5 72
e 6 7
e 6 14
e 6 20
e 6 23
e 6 27
e 6 29
e 6 34
e 6 35
e 6 45
e 6 46
e 6 48
e 6 56
e 6 61
e 6 65
e 6 66
e 6 73
e 6 78
e 7 8
e 7 9
e 7 11
e 7 12
e 7 15
e 7 31
e 7 39
e 7 41
e 7 46
e 7 55
e 7 57
e 7 65
e 8 10
e 8 11
e 8 12
e 8 13
e 8 14
e 8 15
e 8 26
e 8 30
e 8 35
e 8 37
e 8 45
e 8 46
e 8 51
e 8 53
e 8 62
e 8 63
e 8 74
e 8 75
e 9 21
e 9 22
e 9 24
e 9 26
e 9 27
e 9 29
e 9 32
e 9 40
e 9 52
e 9 57
e 9 61
e 9 64
e 9 72
e 10 17
e 10 23
e 10 24
e 10 25
e 10 43
e 10 64
e 10 66
e 11 15
e 11 16
e 11 21
e 11 22
e 11 23
e 11 26
e 11 33
e 11 34
e 11 35
e 11 39
e 11 42
e 11 49
e 11 64
e 12 14
e 12 26
e 12 33
e 13 15
e 13 17
e 13 20
e 13 25
e 13 30
e 13 36
e 13 48
e 13 52
e 13 57
e 13 65
e 13 69
e 13 79
e 14 16
e 14 20
e 14 36
e 14 47
e 14 53
e 14 60
e 14 69
e 15 28
e 15 30
e 15 51
e 15 53
e 15 71
e 15 79
e 16 18
e 16 19
e 16 22
e 16 38
e 16 44
e 16 46
e 16 62
e 16 74
e 17 18
e 17 23
e 17 32
e 17 41
e 17 49
e 17 50
e 17 51
e 17 58
e 17 67
e 17 75
e 17 77
e 18 19
e 18 37
e 18 48
e 18 60
e 18 76
e 18 80
e 19 24
e 19 60
e 19 71
e 19 72
e 20 25
e 20 42
e 20 43
e 20 65
e 20 77
e 21 27
e 21 58
e 21 63
e 21 70
e 21 79
e 22 64
e 23 36
e 23 45
e 23 47
e 23 58
e 24 31
e 25 28
e 25 29
e 25 43
e 25 44
e 25 49
e 25 52
e 25 54
e 25 55
e 25 67
e 25 73
e 26 29
e 26 73
e 27 32
e 27 63
e 29 33
e 29 37
e 30 36
e 30 38
e 30 47
e 30 71
e 31 42
e 31 59
e 31 67
e 31 74
e 32 39
e 32 51
e 32 56
e 32 75
e 32 80
e 33 53
e 33 56
e 33 60
e 33 61
e 34 38
e 35 76
e 36 79
e 37 41
e 37 47
e 37 54
e 40 41
e 40 44
e 40 55
e 40 58
e 42 67
e 43 54
e 43 72
e 45 59
e 47 59
e 47 76
e 49 50
e 49 52
e 50 57
e 50 68
e 51 71
e 54 55
e 54 70
e 55 68
e 55 78
e 57 62
e 58 62
e 58 68
e 58 70
e 58 77
e 59 66
e 59 69
e 60 78
e 61 74
e 63 70
e 63 76
e 64 75
e 71 77
e 71 78
e 71 80
